
(set-logic HORN)
(define-fun Z_413 () Int 0)
(define-fun S_147 ((x Int)) Int (+ x 1))
(declare-datatypes ((Bool_76 0)) (((false_76) (true_76))))
(declare-fun diseqBool_32 (Bool_76 Bool_76) Bool)
(declare-fun isfalse_32 (Bool_76) Bool)
(declare-fun istrue_32 (Bool_76) Bool)
(assert (isfalse_32 false_76))
(assert (istrue_32 true_76))
(assert (diseqBool_32 false_76 true_76))
(assert (diseqBool_32 true_76 false_76))
(declare-fun and_76 (Bool_76 Bool_76 Bool_76) Bool)
(declare-fun or_76 (Bool_76 Bool_76 Bool_76) Bool)
(declare-fun hence_76 (Bool_76 Bool_76 Bool_76) Bool)
(declare-fun not_76 (Bool_76 Bool_76) Bool)
(assert (and_76 false_76 false_76 false_76))
(assert (and_76 false_76 true_76 false_76))
(assert (and_76 false_76 false_76 true_76))
(assert (and_76 true_76 true_76 true_76))
(assert (or_76 false_76 false_76 false_76))
(assert (or_76 true_76 true_76 false_76))
(assert (or_76 true_76 false_76 true_76))
(assert (or_76 true_76 true_76 true_76))
(assert (hence_76 true_76 false_76 false_76))
(assert (hence_76 false_76 true_76 false_76))
(assert (hence_76 true_76 false_76 true_76))
(assert (hence_76 true_76 true_76 true_76))
(assert (not_76 true_76 false_76))
(assert (not_76 false_76 true_76))
(declare-fun diseqInt (Int Int) Bool)
(declare-fun projS_143 (Int Int) Bool)
(declare-fun isZ_147 (Int) Bool)
(declare-fun isS_147 (Int) Bool)
(assert (forall ((x_4000 Int))
	(projS_143 x_4000 (S_147 x_4000))))
(assert (isZ_147 Z_413))
(assert (forall ((x_4002 Int))
	(isS_147 (S_147 x_4002))))
(assert (forall ((x_4003 Int))
	(diseqInt Z_413 (S_147 x_4003))))
(assert (forall ((x_4004 Int))
	(diseqInt (S_147 x_4004) Z_413)))
(assert (forall ((x_4005 Int) (x_4006 Int))
	(=> (diseqInt x_4005 x_4006) (diseqInt (S_147 x_4005) (S_147 x_4006)))))
(declare-datatypes ((list_64 0)) (((nil_64) (cons_64 (head_128 Int) (tail_128 list_64)))))
(declare-fun diseqlist_64 (list_64 list_64) Bool)
(declare-fun head_129 (Int list_64) Bool)
(declare-fun tail_129 (list_64 list_64) Bool)
(declare-fun isnil_64 (list_64) Bool)
(declare-fun iscons_64 (list_64) Bool)
(assert (forall ((x_4008 Int) (x_4009 list_64))
	(head_129 x_4008 (cons_64 x_4008 x_4009))))
(assert (forall ((x_4008 Int) (x_4009 list_64))
	(tail_129 x_4009 (cons_64 x_4008 x_4009))))
(assert (isnil_64 nil_64))
(assert (forall ((x_4011 Int) (x_4012 list_64))
	(iscons_64 (cons_64 x_4011 x_4012))))
(assert (forall ((x_4013 Int) (x_4014 list_64))
	(diseqlist_64 nil_64 (cons_64 x_4013 x_4014))))
(assert (forall ((x_4015 Int) (x_4016 list_64))
	(diseqlist_64 (cons_64 x_4015 x_4016) nil_64)))
(assert (forall ((x_4017 Int) (x_4018 list_64) (x_4019 Int) (x_4020 list_64))
	(=> (diseqInt x_4017 x_4019) (diseqlist_64 (cons_64 x_4017 x_4018) (cons_64 x_4019 x_4020)))))
(assert (forall ((x_4017 Int) (x_4018 list_64) (x_4019 Int) (x_4020 list_64))
	(=> (diseqlist_64 x_4018 x_4020) (diseqlist_64 (cons_64 x_4017 x_4018) (cons_64 x_4019 x_4020)))))
(declare-fun len_13 (Int list_64) Bool)
(assert (forall ((x_3981 Int) (y_326 Int) (xs_119 list_64))
	(=> (len_13 x_3981 xs_119) (len_13 (S_147 x_3981) (cons_64 y_326 xs_119)))))
(assert (len_13 Z_413 nil_64))
(declare-fun x_3975 (Bool_76 Int Int) Bool)
(assert (forall ((x_3983 Bool_76) (x_3977 Int) (z_414 Int))
	(=> (x_3975 x_3983 x_3977 z_414) (x_3975 x_3983 (S_147 x_3977) (S_147 z_414)))))
(assert (forall ((z_414 Int))
	(x_3975 true_76 Z_413 (S_147 z_414))))
(assert (forall ((x_3976 Int))
	(x_3975 false_76 x_3976 Z_413)))
(declare-fun ins_4 (list_64 Int list_64) Bool)
(assert (forall ((z_415 Int) (xs_120 list_64) (x_3978 Int))
	(=> (x_3975 true_76 x_3978 z_415) (ins_4 (cons_64 x_3978 (cons_64 z_415 xs_120)) x_3978 (cons_64 z_415 xs_120)))))
(assert (forall ((x_3991 list_64) (z_415 Int) (xs_120 list_64) (x_3978 Int))
	(=> (and (ins_4 x_3991 x_3978 xs_120) (x_3975 false_76 x_3978 z_415)) (ins_4 (cons_64 z_415 x_3991) x_3978 (cons_64 z_415 xs_120)))))
(assert (forall ((x_3978 Int))
	(ins_4 (cons_64 x_3978 nil_64) x_3978 nil_64)))
(assert (forall ((x_3993 list_64) (x_3994 Int) (x_3995 Int) (x_3979 Int) (xs_121 list_64))
	(=> (and true (diseqInt x_3994 (S_147 x_3995)) (ins_4 x_3993 x_3979 xs_121) (len_13 x_3994 x_3993) (len_13 x_3995 xs_121)) false)))
(check-sat)
